solution status: optimal solution found
objective value:                     135181.930867336
d11(0,0)                                            1 	(obj:0)
d11(1,1)                                            1 	(obj:0)
d11(1,2)                                            1 	(obj:0)
d11(1,3)                                            1 	(obj:0)
d11(2,4)                                            1 	(obj:0)
d11(2,5)                                            1 	(obj:0)
d11(2,6)                                            1 	(obj:0)
d11(2,7)                                            1 	(obj:0)
d11(2,8)                                            1 	(obj:0)
d11(2,9)                                            1 	(obj:0)
d11(2,10)                                           1 	(obj:0)
d11(2,11)                                           1 	(obj:0)
d11(3,13)                                           1 	(obj:0)
d11(3,14)                                           1 	(obj:0)
d11(3,16)                                           1 	(obj:0)
d11(3,17)                                           1 	(obj:0)
d11(3,19)                                           1 	(obj:0)
d11(3,20)                                           1 	(obj:0)
d11(3,22)                                           1 	(obj:0)
d11(3,23)                                           1 	(obj:0)
d11(3,25)                                           1 	(obj:0)
d11(3,26)                                           1 	(obj:0)
d11(3,28)                                           1 	(obj:0)
d11(3,29)                                           1 	(obj:0)
d11(3,31)                                           1 	(obj:0)
d11(3,32)                                           1 	(obj:0)
d11(3,34)                                           1 	(obj:0)
d11(3,35)                                           1 	(obj:0)
d11(3,37)                                           1 	(obj:0)
d11(3,38)                                           1 	(obj:0)
d12(3,15)                                           1 	(obj:0)
d12(3,18)                                           1 	(obj:0)
d12(3,21)                                           1 	(obj:0)
d12(3,24)                                           1 	(obj:0)
d12(3,27)                                           1 	(obj:0)
d12(3,30)                                           1 	(obj:0)
d12(3,33)                                           1 	(obj:0)
d12(3,36)                                           1 	(obj:0)
d12(3,39)                                           1 	(obj:0)
d21(3,13)                                           1 	(obj:0)
d21(3,14)                                           1 	(obj:0)
d21(3,15)                                           1 	(obj:0)
d21(3,16)                                           1 	(obj:0)
d21(3,17)                                           1 	(obj:0)
d21(3,19)                                           1 	(obj:0)
d21(3,22)                                           1 	(obj:0)
d21(3,23)                                           1 	(obj:0)
d21(3,25)                                           1 	(obj:0)
d21(3,31)                                           1 	(obj:0)
STE(1,1)                             10601.6555832682 	(obj:0)
STE(0,0)                                        14175 	(obj:0)
STE(1,2)                             11598.4215866015 	(obj:0)
STE(1,3)                             12815.8737899348 	(obj:0)
STE(2,4)                             7253.43737660142 	(obj:0)
STE(2,5)                             8250.20337993471 	(obj:0)
STE(2,6)                             9467.65558326809 	(obj:0)
STE(2,7)                             8250.20337993473 	(obj:0)
STE(2,8)                             9246.96938326802 	(obj:0)
STE(2,9)                             10464.4215866015 	(obj:0)
STE(2,10)                            9467.65558326809 	(obj:0)
STE(2,11)                            10464.4215866014 	(obj:0)
STE(2,12)                            11681.8737899348 	(obj:0)
STE(3,13)                            4097.20174000011 	(obj:0)
STE(3,14)                             5093.9677433334 	(obj:0)
STE(3,15)                            6119.43737660142 	(obj:0)
STE(3,16)                             5093.9677433334 	(obj:0)
STE(3,17)                            6090.73374666671 	(obj:0)
STE(3,18)                            7116.20337993471 	(obj:0)
STE(3,19)                            6311.41994666678 	(obj:0)
STE(3,20)                            7308.18595000007 	(obj:0)
STE(3,21)                            8333.65558326809 	(obj:0)
STE(3,22)                            5093.96774333342 	(obj:0)
STE(3,23)                            6090.73374666671 	(obj:0)
STE(3,24)                            7116.20337993473 	(obj:0)
STE(3,25)                            6090.73374666671 	(obj:0)
STE(3,26)                                  7087.49975 	(obj:0)
STE(3,27)                            8112.96938326802 	(obj:0)
STE(3,28)                             7308.1859500001 	(obj:0)
STE(3,29)                            8304.95195333347 	(obj:0)
STE(3,30)                            9330.42158660148 	(obj:0)
STE(3,31)                            6311.41994666678 	(obj:0)
STE(3,32)                            7308.18595000007 	(obj:0)
STE(3,33)                            8333.65558326809 	(obj:0)
STE(3,34)                            7308.18595000007 	(obj:0)
STE(3,35)                            8304.95195333336 	(obj:0)
STE(3,36)                            9330.42158660138 	(obj:0)
STE(3,37)                            8525.63815333353 	(obj:0)
STE(3,38)                            9522.40415666682 	(obj:0)
STE(3,39)                            10547.8737899348 	(obj:0)
y1(3,23)                             922.922669941217 	(obj:0)
y1(3,25)                             1820.01207294118 	(obj:0)
y1(3,26)                             922.922669941217 	(obj:0)
y1(3,28)                             1820.01207294125 	(obj:0)
y1(3,29)                             922.922669941217 	(obj:0)
y1(3,31)                             1820.01207294118 	(obj:0)
y1(3,32)                             922.922669941217 	(obj:0)
y1(3,34)                             1820.01207294118 	(obj:0)
y1(3,35)                             922.922669941217 	(obj:0)
y1(3,37)                             1820.01207294118 	(obj:0)
y1(3,38)                             922.922669941217 	(obj:0)
BG(3)                                4319.60782647058 	(obj:10)
AVE(1)                               3199.95851117552 	(obj:0)
AVE(2)                               3265.15049132519 	(obj:0)
WB(3)                                3291.35535332476 	(obj:0)
AVE(3)                               3291.35535332476 	(obj:0)
WG(1)                                3199.95851117552 	(obj:10)
WG(2)                                3265.15049132519 	(obj:10)
BG(1)                                1502.70839908839 	(obj:10)
BG(2)                                1230.76785867487 	(obj:10)
y1(1,1)                              2195.40997505865 	(obj:0)
y1(1,2)                              1298.32057205866 	(obj:0)
y1(1,3)                              202.613589058646 	(obj:0)
y1(2,4)                              1992.79638600008 	(obj:0)
y1(2,5)                              1095.70698300012 	(obj:0)
y1(2,7)                              1992.79638600008 	(obj:0)
y1(2,8)                              1095.70698300012 	(obj:0)
y1(2,10)                             1992.79638600008 	(obj:0)
y1(2,11)                             1095.70698300012 	(obj:0)
y1(3,13)                             1820.01207294118 	(obj:0)
y1(3,14)                             922.922669941217 	(obj:0)
y1(3,16)                             1820.01207294118 	(obj:0)
y1(3,17)                             922.922669941201 	(obj:0)
y1(3,19)                             1820.01207294118 	(obj:0)
y1(3,20)                             922.922669941217 	(obj:0)
y1(3,22)                             1820.01207294118 	(obj:0)
